50
19570

889 492
246 780
516 878
585 257
24 94
907 311
244 560
505 98
748 378
65 324
767 395
906 856
97 660
847 335
664 346
614 6
247 761
487 372
160 83
191 824
703 17
309 498
801 125
740 886
35 651
578 42
471 79
949 733
999 293
686 288
6 175
114 142
431 425
855 802
971 230
152 708
45 459
375 511
564 136
214 511
375 558
415 758
988 943
132 515
226 947
186 631
823 550
417 588
102 878
549 424
